
Gurobi 13.0.2 (win64) logging started Thu Jul 23 08:25:28 2026

Set parameter LogFile to value "E:\codes\ExactEBRP\results\gf_cplex_equivalent_gurobi_replica_round28\runs\stage3__high_imbalance_seed3202__c3_replica__300s\external\native_logs\R.1.0.0.0.0.1.1.1.1.0_terminal_mip.gurobi.log"
Gurobi Optimizer version 13.0.2 build v13.0.2rc1 (win64 - Windows 10.0 (19045.2))

CPU model: 12th Gen Intel(R) Core(TM) i7-12700KF, instruction set [SSE2|AVX|AVX2]
Thread count: 12 physical cores, 20 logical processors, using up to 1 threads

Non-default parameters:
TimeLimit  233.7126883
MIPGap  0
MIPGapAbs  0
LogToConsole  0
Threads  1

Optimize a model with 11895 rows, 3372 columns and 67322 nonzeros (Min)
Model fingerprint: 0x0cf04f90
Model has 21 linear objective coefficients
Variable types: 1683 continuous, 1689 integer (1489 binary)
Coefficient statistics:
  Matrix range     [1e-02, 2e+04]
  Objective range  [1e-02, 1e+00]
  Bounds range     [5e-01, 2e+03]
  RHS range        [5e-01, 5e+04]

Presolve removed 2401 rows and 94 columns
Presolve time: 0.19s
Presolved: 9494 rows, 3278 columns, 57813 nonzeros
Variable types: 1627 continuous, 1651 integer (1466 binary)

Root relaxation: objective 1.610460e+00, 3901 iterations, 0.20 seconds (0.50 work units)

    Nodes    |    Current Node    |     Objective Bounds      |     Work
 Expl Unexpl |  Obj  Depth IntInf | Incumbent    BestBd   Gap | It/Node Time

     0     0    1.61046    0  235          -    1.61046      -     -    0s
     0     0    1.66642    0  240          -    1.66642      -     -    0s
     0     0    1.71608    0  297          -    1.71608      -     -    1s
     0     0    1.71776    0  259          -    1.71776      -     -    1s
     0     0    1.72492    0  317          -    1.72492      -     -    1s
     0     0    1.72871    0  313          -    1.72871      -     -    1s
     0     0    1.74170    0  323          -    1.74170      -     -    2s
     0     0    1.74363    0  316          -    1.74363      -     -    2s
     0     0    1.74691    0  358          -    1.74691      -     -    2s
     0     0    1.74713    0  367          -    1.74713      -     -    2s
     0     0 infeasible    0               - infeasible      -     -    3s

Cutting planes:
  Learned: 14
  Gomory: 1
  Cover: 52
  Implied bound: 130
  Clique: 9
  MIR: 151
  StrongCG: 4
  Flow cover: 85
  GUB cover: 1
  Zero half: 8
  Network: 31
  RLT: 15
  Relax-and-lift: 67
  BQP: 14
  PSD: 1

Explored 1 nodes (12646 simplex iterations) in 3.10 seconds (5.83 work units)
Thread count was 1 (of 20 available processors)

Solution count 0

Model is infeasible
Best objective -, best bound -, gap -

User-callback calls 1389, time in user-callback 0.00 sec
